C = 8;		% Number of customers (excludes depot).
T = 21;		% Number of trucks.
G = 2;		% Number of good types.
MAXCAP = 6;	% Largest capacity of any truck.

% Details of the truck types: capacities, refrigeration capabilities, and cost (cents per km).
% e.g. truck 1 has a capacity of 2 units, no refrigeration capabilities, and a cost of 215 cts/km.
cap        = [ 2,     3,     3,     3,     5,     5,     5,     5,     5,    5,    5,    4,     4,     4,     4,    4,    4,    4,    4,    6,     6     ];
refrig     = [ false, false, false, false, false, false, false, false, true, true, true, false, false, false, true, true, true, true, true, false, false ];
centsPerKm = [ 215,   244,   244,   244,   267,   267,   267,   267,   304,  304,  304,  259,   259,   259,   299,  299,  299,  299,  299,  286,   286   ];

% Distances between places. Place 0 is the depot.
% D[i][j] is the travel distance from place i to place j.
% e.g. the travel distance from the depot to customer 2 is 914 km.
D = array2d(customers,customers,
    [   0,  611,  914,  700,  338,  632,  805,  581,  860,
      609,    0, 1455,  229,  688, 1243,  482, 1077,  371,
      908, 1453,    0, 1409, 1168,  372, 1371, 1046, 1753,  
      701,  232, 1409,    0,  880, 1275,  263, 1246,  599,
      338,  688, 1179,  881,    0,  818, 1072,  404,  757,
      630, 1242,  372, 1275,  820,    0, 1291,  693, 1478,
      805,  481, 1370,  263, 1072, 1292,    0, 1404,  859,
      581, 1078, 1046, 1247,  404,  691, 1404,    0, 1152,
      860,  372, 1753,  600,  757, 1478,  859, 1153,    0 ]);

% Orders placed by the customers. Customer 0 is the depot.
% order[i][j] is the number of units of good of type i that customer j ordered.
% e.g. customer 1 ordered 4 units of chilled goods and 3 units of ambient goods.
order = array2d(goods,customers,
        [| 0, 4, 0, 9, 5, 6, 0, 0,  2,
         | 0, 3, 3, 8, 4, 2, 3, 10, 2 |]);

% Constraints from the previous solution
constraint trans[2,7,1] = 0;
constraint trans[2,7,2] = 3;
constraint step[2,7] = 1;
constraint trans[4,7,1] = 0;
constraint trans[4,7,2] = 2;
constraint step[4,7] = 1;
constraint trans[4,4,1] = 0;
constraint trans[4,4,2] = 1;
constraint step[4,4] = 2;
constraint trans[5,7,1] = 0;
constraint trans[5,7,2] = 3;
constraint step[5,7] = 1;
constraint trans[5,4,1] = 0;
constraint trans[5,4,2] = 2;
constraint step[5,4] = 2;
constraint trans[6,6,1] = 0;
constraint trans[6,6,2] = 3;
constraint step[6,6] = 1;
constraint trans[6,3,1] = 0;
constraint trans[6,3,2] = 1;
constraint step[6,3] = 2;
constraint trans[7,8,1] = 0;
constraint trans[7,8,2] = 2;
constraint step[7,8] = 1;
constraint trans[7,1,1] = 0;
constraint trans[7,1,2] = 1;
constraint step[7,1] = 2;
constraint trans[7,3,1] = 0;
constraint trans[7,3,2] = 1;
constraint step[7,3] = 3;
constraint trans[9,4,1] = 4;
constraint trans[9,4,2] = 0;
constraint step[9,4] = 1;
constraint trans[10,1,1] = 4;
constraint trans[10,1,2] = 0;
constraint step[10,1] = 1;
constraint trans[11,8,1] = 2;
constraint trans[11,8,2] = 0;
constraint step[11,8] = 1;
constraint trans[11,3,1] = 2;
constraint trans[11,3,2] = 0;
constraint step[11,3] = 2;
constraint trans[12,3,1] = 0;
constraint trans[12,3,2] = 2;
constraint step[12,3] = 1;
constraint trans[12,1,1] = 0;
constraint trans[12,1,2] = 2;
constraint step[12,1] = 2;
constraint trans[13,5,1] = 0;
constraint trans[13,5,2] = 2;
constraint step[13,5] = 1;
constraint trans[13,2,1] = 0;
constraint trans[13,2,2] = 2;
constraint step[13,2] = 2;
constraint trans[14,3,1] = 0;
constraint trans[14,3,2] = 4;
constraint step[14,3] = 1;
constraint trans[15,3,1] = 3;
constraint trans[15,3,2] = 0;
constraint step[15,3] = 1;
constraint trans[16,4,1] = 1;
constraint trans[16,4,2] = 0;
constraint step[16,4] = 1;
constraint trans[16,5,1] = 2;
constraint trans[16,5,2] = 0;
constraint step[16,5] = 2;
constraint trans[17,3,1] = 3;
constraint trans[17,3,2] = 0;
constraint step[17,3] = 1;
constraint trans[18,3,1] = 1;
constraint trans[18,3,2] = 0;
constraint step[18,3] = 1;
constraint trans[18,5,1] = 2;
constraint trans[18,5,2] = 0;
constraint step[18,5] = 2;
constraint trans[21,2,1] = 0;
constraint trans[21,2,2] = 1;
constraint step[21,2] = 1;
constraint trans[21,4,1] = 0;
constraint trans[21,4,2] = 1;
constraint step[21,4] = 2;
constraint trans[21,7,1] = 0;
constraint trans[21,7,2] = 2;
constraint step[21,7] = 3;
